100
32
15
5
2
9
12
3
24
31
23
11
14
18
4
15
30
16
30
13
7
6
4
17
17
3
2
5
1
2
1
1
1
1
1
2
1
1
1
2
1
3
1
1
3
21
2
1
3
1
18
3
17
5
2
2
10
16
4
1
1
17
1
5
1
20
5
2
2
19
4
2
4
3
2
2
2
4
2
2
4
2
18
2
2
2
1
1
2
2
3
3
1
1
2
1
2
2
17
1
1
4